<number of tasks>
250

<cycle time>
1000

<order strength>
0.596


<task times>
1 568
2 545
3 569
4 503
5 483
6 495
7 297
8 483
9 521
10 466
11 374
12 492
13 505
14 508
15 390
16 482
17 541
18 493
19 372
20 777
21 526
22 400
23 438
24 620
25 565
26 527
27 412
28 476
29 706
30 431
31 586
32 705
33 337
34 717
35 592
36 404
37 405
38 420
39 446
40 535
41 440
42 403
43 392
44 441
45 527
46 673
47 506
48 448
49 584
50 521
51 610
52 527
53 289
54 292
55 346
56 316
57 726
58 446
59 595
60 595
61 379
62 524
63 512
64 333
65 337
66 437
67 554
68 521
69 374
70 352
71 715
72 731
73 587
74 589
75 617
76 612
77 383
78 461
79 497
80 507
81 408
82 784
83 458
84 502
85 512
86 688
87 516
88 465
89 342
90 376
91 390
92 477
93 421
94 599
95 315
96 491
97 470
98 335
99 561
100 574
101 506
102 345
103 460
104 542
105 641
106 577
107 800
108 419
109 466
110 523
111 471
112 149
113 646
114 512
115 493
116 388
117 750
118 593
119 435
120 693
121 385
122 401
123 751
124 610
125 561
126 600
127 447
128 569
129 210
130 363
131 630
132 520
133 654
134 344
135 347
136 387
137 712
138 495
139 519
140 907
141 330
142 693
143 543
144 389
145 503
146 556
147 206
148 755
149 497
150 687
151 409
152 476
153 490
154 434
155 674
156 648
157 547
158 366
159 625
160 462
161 576
162 200
163 428
164 523
165 356
166 511
167 550
168 510
169 439
170 563
171 425
172 490
173 482
174 377
175 438
176 482
177 543
178 298
179 694
180 610
181 456
182 581
183 353
184 654
185 582
186 416
187 399
188 682
189 726
190 597
191 578
192 308
193 674
194 638
195 255
196 600
197 415
198 670
199 602
200 553
201 630
202 259
203 392
204 550
205 551
206 609
207 255
208 506
209 241
210 501
211 518
212 521
213 597
214 619
215 615
216 468
217 827
218 547
219 509
220 460
221 425
222 549
223 524
224 411
225 570
226 616
227 366
228 427
229 400
230 262
231 467
232 500
233 448
234 754
235 397
236 587
237 394
238 525
239 517
240 473
241 620
242 523
243 559
244 360
245 667
246 512
247 561
248 622
249 411
250 410

<precedence relations>
1,128
2,225
3,42
4,202
5,83
6,83
7,10
7,12
7,14
7,15
7,16
7,17
7,18
8,9
8,11
8,13
8,15
8,16
9,148
10,128
11,42
12,83
13,83
14,83
15,83
16,83
17,83
18,19
18,20
18,21
18,22
18,23
18,24
18,25
18,26
19,148
20,42
21,144
22,182
23,83
24,34
24,35
24,36
24,37
25,27
25,31
25,33
25,51
26,28
26,29
26,30
26,31
26,32
26,36
27,186
28,225
29,225
30,225
31,42
32,42
33,42
34,144
35,182
36,83
37,38
37,39
37,40
37,41
37,43
37,44
37,45
37,46
37,47
37,48
37,49
37,74
38,148
39,110
40,128
41,170
42,52
42,53
42,54
42,55
42,56
42,57
42,58
42,59
42,60
42,61
42,62
42,63
42,64
42,65
42,66
42,67
42,68
42,69
42,70
43,144
44,83
45,83
46,83
47,83
48,50
48,51
48,71
48,80
48,91
48,106
48,119
49,50
49,80
49,101
50,128
51,170
52,72
52,73
52,75
52,80
53,74
53,119
53,175
54,102
55,82
55,102
56,72
56,85
56,112
57,72
57,73
57,74
57,91
57,123
57,134
57,144
58,73
58,82
58,87
58,91
58,131
59,83
60,72
60,127
61,72
62,73
62,74
62,77
62,83
63,75
63,76
64,100
64,111
64,121
64,126
64,129
64,151
64,152
65,72
65,73
65,127
66,72
66,73
66,74
66,75
66,76
66,77
67,72
67,83
68,92
69,98
69,101
69,104
69,105
69,111
70,72
70,73
70,74
70,75
70,76
70,80
70,86
70,87
70,88
70,89
70,91
71,72
71,73
71,79
71,104
72,148
73,170
74,235
75,83
76,83
77,78
77,79
77,80
77,81
77,82
77,84
77,85
77,105
78,148
79,148
80,128
81,128
82,202
83,90
83,92
83,93
83,94
83,95
83,96
83,97
84,86
84,87
84,91
84,92
84,99
84,101
84,104
85,86
85,87
85,88
85,89
85,90
86,148
87,186
88,110
89,144
90,202
91,202
92,182
93,120
93,122
93,145
94,100
94,101
95,98
95,142
95,146
95,147
95,171
96,98
96,99
96,102
97,173
97,190
98,148
99,148
100,128
101,103
101,107
102,104
102,105
102,106
102,108
103,110
104,110
105,110
106,170
107,109
107,112
107,123
107,128
108,111
108,112
108,120
108,127
109,148
110,113
110,114
110,115
110,116
110,117
110,118
110,120
110,121
111,128
112,119
112,122
112,172
112,173
113,186
114,123
114,126
114,127
114,145
115,123
115,125
116,123
116,149
116,174
116,202
116,203
117,123
117,126
117,147
117,174
117,184
117,185
118,124
118,125
119,170
120,144
121,235
122,148
122,149
122,150
123,234
124,128
125,182
126,182
127,129
127,130
127,131
127,132
127,133
127,134
127,162
128,134
128,135
128,136
128,137
128,138
128,139
128,153
129,225
130,235
131,140
132,161
132,175
132,189
133,141
133,171
133,173
134,148
135,144
136,202
137,141
137,142
137,143
138,145
139,174
139,176
139,182
139,187
140,141
140,146
140,147
140,163
141,148
142,225
143,170
144,155
144,156
144,157
144,158
144,159
144,160
144,161
145,149
145,154
145,162
145,163
145,185
146,152
146,153
146,189
147,150
147,151
147,153
147,161
148,164
148,165
148,166
148,167
148,168
148,169
148,185
149,186
150,186
151,225
152,225
153,170
154,170
155,172
155,213
156,209
157,183
157,201
157,203
157,212
158,171
158,173
158,187
158,203
159,224
160,185
160,203
161,188
162,172
163,174
164,235
165,182
166,174
166,182
166,183
166,201
167,174
167,175
167,184
167,203
168,174
168,183
168,184
168,201
168,212
169,176
170,177
170,178
170,179
170,180
170,181
170,182
170,183
171,175
171,213
171,227
172,175
172,212
172,214
172,215
173,174
173,183
173,185
174,186
175,234
176,225
177,202
178,187
178,219
178,226
178,227
179,195
179,217
180,190
180,225
181,187
182,188
182,191
182,192
182,193
182,194
183,186
184,215
184,221
184,227
185,189
185,195
185,209
186,196
186,197
186,198
186,199
186,200
186,214
186,215
187,234
188,202
189,202
190,235
191,203
191,209
191,221
192,220
192,223
192,237
193,216
193,248
193,249
194,209
195,201
195,213
195,215
195,216
196,208
196,209
196,216
197,216
197,226
197,248
198,222
198,234
200,211
200,227
201,225
202,204
202,205
202,206
202,207
202,208
203,227
203,233
204,214
205,214
205,215
206,211
206,212
208,213
209,210
209,218
210,234
211,225
212,225
213,235
214,216
214,217
214,218
214,219
215,250
216,225
217,225
218,220
218,222
218,223
219,221
219,222
219,224
220,234
221,225
222,225
223,226
223,227
225,229
225,230
225,231
225,232
225,233
226,235
227,228
227,235
228,234
229,235
231,236
233,237
234,238
234,239
234,240
234,241
234,242
234,248
235,243
235,244
235,245
235,246
235,247
241,249
245,250
246,250
249,250

<end>
